benchmarks/VRPTW/TSPTW/solution/n60w40.003.txt.solution
1 19 34 53 44 16 29 46 41 33 2 56 7 8 20 3 42 59 50 28 30 10 55 27 39 35 43 38 52 37 26 36 13 6 9 31 45 48 57 25 18 51 58 40 15 12 54 21 22 5 32 14 4 17 60 23 11 47 49 61 24 
603
